(declare-const X String)
; /^icmp\x7c\d+\x7c\d+\x7C[a-z0-9]+\x2E[a-z]{2,3}\x7C[a-z0-9]+\x7C/
(assert (not (str.in.re X (re.++ (str.to.re "/icmp|") (re.+ (re.range "0" "9")) (str.to.re "|") (re.+ (re.range "0" "9")) (str.to.re "|") (re.+ (re.union (re.range "a" "z") (re.range "0" "9"))) (str.to.re ".") ((_ re.loop 2 3) (re.range "a" "z")) (str.to.re "|") (re.+ (re.union (re.range "a" "z") (re.range "0" "9"))) (str.to.re "|/\x0a")))))
; /filename=[^\n]*\x2eavi/i
(assert (str.in.re X (re.++ (str.to.re "/filename=") (re.* (re.comp (str.to.re "\x0a"))) (str.to.re ".avi/i\x0a"))))
(check-sat)
